NAME          BLANK   
ROWS
 N  OBJROW
 L  R0000000
COLUMNS
    C0000000  OBJROW     -392.         R0000000  908.        
    C0000001  OBJROW     -366.         R0000000  581.        
    C0000002  OBJROW     -940.         R0000000  668.        
    C0000003  OBJROW     -474.         R0000000  701.        
    C0000004  OBJROW     -755.         R0000000  487.        
    C0000005  OBJROW     -209.         R0000000  132.        
    C0000006  OBJROW     -185.         R0000000  45.         
    C0000007  OBJROW     -705.         R0000000  493.        
    C0000008  OBJROW     -416.         R0000000  165.        
    C0000009  OBJROW     -150.         R0000000  172.        
    C0000010  OBJROW     -365.         R0000000  135.        
    C0000011  OBJROW     -654.         R0000000  669.        
    C0000012  OBJROW     -140.         R0000000  414.        
    C0000013  OBJROW     -797.         R0000000  175.        
    C0000014  OBJROW     -873.         R0000000  435.        
    C0000015  OBJROW     -24.          R0000000  744.        
RHS
    RHS       R0000000  14132.      
BOUNDS
 BV BOUND     C0000000  1.          
 BV BOUND     C0000001  1.          
 BV BOUND     C0000002  1.          
 BV BOUND     C0000003  1.          
 BV BOUND     C0000004  1.          
 BV BOUND     C0000005  1.          
 BV BOUND     C0000006  1.          
 BV BOUND     C0000007  1.          
 BV BOUND     C0000008  1.          
 BV BOUND     C0000009  1.          
 BV BOUND     C0000010  1.          
 BV BOUND     C0000011  1.          
 BV BOUND     C0000012  1.          
 BV BOUND     C0000013  1.          
 BV BOUND     C0000014  1.          
 BV BOUND     C0000015  1.          
ENDATA
